experiment/data/lkh-res/Vrp-Set-P-n60/Vrp-Set-P-n60-lkh/0.lkh1.vrp
NAME : 0
COMMENT : CVRP Instance
TYPE : CVRP
DIMENSION : 60
EDGE_WEIGHT_TYPE : EUC_2D
CAPACITY : 120
NODE_COORD_SECTION
1	4000	4000
2	2200	2200
3	3600	2600
4	2100	4500
5	4500	3500
6	5500	2000
7	3300	3400
8	5000	5000
9	5500	4500
10	2600	5900
11	4000	6600
12	5500	6500
13	3500	5100
14	6200	3500
15	6200	5700
16	6200	2400
17	2100	3600
18	3300	4400
19	900	5600
20	6200	4800
21	6600	1400
22	4400	1300
23	2600	1300
24	1100	2800
25	700	4300
26	1700	6400
27	4100	4600
28	5500	3400
29	3500	1600
30	5200	2600
31	4300	2600
32	3100	7600
33	2200	5300
34	2600	2900
35	5000	4000
36	5500	5000
37	5400	1000
38	6000	1500
39	4700	6600
40	3000	6000
41	3000	5000
42	1200	1700
43	1500	1400
44	1600	1900
45	2100	4800
46	5000	3000
47	5100	4200
48	5000	1500
49	4800	2100
50	1200	3800
51	1500	5600
52	2900	3900
53	5400	3800
54	5500	5700
55	6700	4100
56	1000	7000
57	600	2500
58	6500	2700
59	4000	6000
60	5000	400
DEMAND_SECTION
1	0
2	18
3	26
4	11
5	30
6	21
7	19
8	15
9	16
10	29
11	26
12	37
13	16
14	12
15	31
16	8
17	19
18	20
19	13
20	15
21	22
22	28
23	12
24	6
25	27
26	14
27	18
28	17
29	29
30	13
31	22
32	25
33	28
34	27
35	19
36	10
37	12
38	14
39	24
40	16
41	33
42	15
43	11
44	18
45	17
46	21
47	27
48	19
49	20
50	5
51	22
52	12
53	19
54	22
55	16
56	7
57	26
58	14
59	21
60	24
DEPOT_SECTION
1
-1
EOF
