experiment/data/lkh-res/Vrp-Set-P-n60/Vrp-Set-P-n60-lkh/0.lkh1.tour
NAME : 0.74808.tour
COMMENT : Length = 74808
COMMENT : Found by LKH-3 [Keld Helsgaun] Tue Apr  9 02:41:12 2024
TYPE : TOUR
DIMENSION : 69
TOUR_SECTION
1
8
54
12
39
59
67
9
36
15
20
55
14
28
61
5
53
47
35
64
17
24
57
42
43
44
2
65
52
50
25
19
51
33
63
7
34
23
29
3
68
46
58
16
21
38
6
49
66
30
48
37
60
22
31
69
27
13
41
45
4
18
62
40
10
26
56
32
11
-1
EOF
